*SPEF "ieee 1481-1999"
*DESIGN "uart"
*DATE "15:06:59 Wednesday September 02, 2026"
*VENDOR "The OpenROAD Project"
*PROGRAM "OpenROAD"
*VERSION "v2.0-17598-ga008522d8"
*DESIGN_FLOW "NAME_SCOPE LOCAL" "PIN_CAP NONE"
*DIVIDER /
*DELIMITER :
*BUS_DELIMITER []
*T_UNIT 1 NS
*C_UNIT 1 PF
*R_UNIT 1 OHM
*L_UNIT 1 HENRY

*NAME_MAP
*1 _0_
*2 clk
*3 data_in
*4 data_out
*5 rst
*6 _1_
*7 _2_
*8 TAP_TAPCELL_ROW_0_0
*9 TAP_TAPCELL_ROW_0_1
*10 TAP_TAPCELL_ROW_0_2
*11 TAP_TAPCELL_ROW_1_3
*12 TAP_TAPCELL_ROW_2_4
*13 TAP_TAPCELL_ROW_2_5
*14 TAP_TAPCELL_ROW_3_6
*15 TAP_TAPCELL_ROW_4_7
*16 TAP_TAPCELL_ROW_4_8
*17 TAP_TAPCELL_ROW_5_9
*18 TAP_TAPCELL_ROW_6_10
*19 TAP_TAPCELL_ROW_6_11
*20 TAP_TAPCELL_ROW_7_12
*21 TAP_TAPCELL_ROW_8_13
*22 TAP_TAPCELL_ROW_8_14
*23 TAP_TAPCELL_ROW_9_15
*24 TAP_TAPCELL_ROW_10_16
*25 TAP_TAPCELL_ROW_10_17
*26 TAP_TAPCELL_ROW_11_18
*27 TAP_TAPCELL_ROW_12_19
*28 TAP_TAPCELL_ROW_12_20
*29 TAP_TAPCELL_ROW_13_21
*30 TAP_TAPCELL_ROW_14_22
*31 TAP_TAPCELL_ROW_14_23
*32 TAP_TAPCELL_ROW_15_24
*33 TAP_TAPCELL_ROW_16_25
*34 TAP_TAPCELL_ROW_16_26
*35 TAP_TAPCELL_ROW_17_27
*36 TAP_TAPCELL_ROW_18_28
*37 TAP_TAPCELL_ROW_18_29
*38 TAP_TAPCELL_ROW_19_30
*39 TAP_TAPCELL_ROW_20_31
*40 TAP_TAPCELL_ROW_20_32
*41 TAP_TAPCELL_ROW_20_33
*42 FILLER_0_0
*43 FILLER_0_8
*44 FILLER_0_16
*45 FILLER_0_24
*46 FILLER_0_28
*47 FILLER_0_31
*48 FILLER_0_39
*49 FILLER_0_47
*50 FILLER_0_55
*51 FILLER_0_59
*52 FILLER_0_61
*53 FILLER_0_69
*54 FILLER_0_77
*55 FILLER_0_85
*56 FILLER_0_89
*57 FILLER_0_91
*58 FILLER_0_99
*59 FILLER_0_107
*60 FILLER_0_115
*61 FILLER_0_119
*62 FILLER_1_0
*63 FILLER_1_8
*64 FILLER_1_16
*65 FILLER_1_24
*66 FILLER_1_32
*67 FILLER_1_40
*68 FILLER_1_48
*69 FILLER_1_56
*70 FILLER_1_61
*71 FILLER_1_69
*72 FILLER_1_77
*73 FILLER_1_85
*74 FILLER_1_93
*75 FILLER_1_101
*76 FILLER_1_109
*77 FILLER_1_117
*78 FILLER_1_119
*79 FILLER_2_0
*80 FILLER_2_8
*81 FILLER_2_16
*82 FILLER_2_24
*83 FILLER_2_28
*84 FILLER_2_31
*85 FILLER_2_39
*86 FILLER_2_47
*87 FILLER_2_55
*88 FILLER_2_63
*89 FILLER_2_71
*90 FILLER_2_79
*91 FILLER_2_87
*92 FILLER_2_89
*93 FILLER_2_91
*94 FILLER_2_99
*95 FILLER_2_107
*96 FILLER_2_115
*97 FILLER_2_119
*98 FILLER_3_0
*99 FILLER_3_8
*100 FILLER_3_16
*101 FILLER_3_24
*102 FILLER_3_32
*103 FILLER_3_40
*104 FILLER_3_48
*105 FILLER_3_56
*106 FILLER_3_61
*107 FILLER_3_69
*108 FILLER_3_77
*109 FILLER_3_85
*110 FILLER_3_93
*111 FILLER_3_101
*112 FILLER_3_109
*113 FILLER_3_117
*114 FILLER_3_119
*115 FILLER_4_0
*116 FILLER_4_8
*117 FILLER_4_16
*118 FILLER_4_24
*119 FILLER_4_28
*120 FILLER_4_31
*121 FILLER_4_39
*122 FILLER_4_47
*123 FILLER_4_55
*124 FILLER_4_63
*125 FILLER_4_71
*126 FILLER_4_79
*127 FILLER_4_87
*128 FILLER_4_89
*129 FILLER_4_91
*130 FILLER_4_99
*131 FILLER_4_107
*132 FILLER_4_115
*133 FILLER_4_119
*134 FILLER_5_0
*135 FILLER_5_8
*136 FILLER_5_16
*137 FILLER_5_24
*138 FILLER_5_32
*139 FILLER_5_40
*140 FILLER_5_48
*141 FILLER_5_56
*142 FILLER_5_61
*143 FILLER_5_69
*144 FILLER_5_77
*145 FILLER_5_85
*146 FILLER_5_93
*147 FILLER_5_101
*148 FILLER_5_109
*149 FILLER_5_117
*150 FILLER_5_119
*151 FILLER_6_0
*152 FILLER_6_8
*153 FILLER_6_16
*154 FILLER_6_24
*155 FILLER_6_28
*156 FILLER_6_31
*157 FILLER_6_39
*158 FILLER_6_47
*159 FILLER_6_55
*160 FILLER_6_63
*161 FILLER_6_71
*162 FILLER_6_79
*163 FILLER_6_87
*164 FILLER_6_89
*165 FILLER_6_91
*166 FILLER_6_99
*167 FILLER_6_107
*168 FILLER_6_115
*169 FILLER_6_119
*170 FILLER_7_0
*171 FILLER_7_8
*172 FILLER_7_16
*173 FILLER_7_24
*174 FILLER_7_32
*175 FILLER_7_40
*176 FILLER_7_48
*177 FILLER_7_56
*178 FILLER_7_61
*179 FILLER_7_69
*180 FILLER_7_77
*181 FILLER_7_85
*182 FILLER_7_93
*183 FILLER_7_101
*184 FILLER_7_109
*185 FILLER_7_117
*186 FILLER_7_119
*187 FILLER_8_0
*188 FILLER_8_8
*189 FILLER_8_16
*190 FILLER_8_24
*191 FILLER_8_28
*192 FILLER_8_31
*193 FILLER_8_39
*194 FILLER_8_47
*195 FILLER_8_55
*196 FILLER_8_63
*197 FILLER_8_71
*198 FILLER_8_79
*199 FILLER_8_87
*200 FILLER_8_89
*201 FILLER_8_91
*202 FILLER_8_99
*203 FILLER_8_107
*204 FILLER_8_115
*205 FILLER_8_119
*206 FILLER_9_0
*207 FILLER_9_8
*208 FILLER_9_12
*209 FILLER_9_20
*210 FILLER_9_28
*211 FILLER_9_36
*212 FILLER_9_44
*213 FILLER_9_52
*214 FILLER_9_61
*215 FILLER_9_69
*216 FILLER_9_77
*217 FILLER_9_85
*218 FILLER_9_93
*219 FILLER_9_101
*220 FILLER_9_109
*221 FILLER_9_117
*222 FILLER_9_119
*223 FILLER_10_0
*224 FILLER_10_23
*225 FILLER_10_27
*226 FILLER_10_29
*227 FILLER_10_31
*228 FILLER_10_39
*229 FILLER_10_47
*230 FILLER_10_55
*231 FILLER_10_63
*232 FILLER_10_71
*233 FILLER_10_79
*234 FILLER_10_87
*235 FILLER_10_89
*236 FILLER_10_91
*237 FILLER_10_99
*238 FILLER_10_107
*239 FILLER_10_115
*240 FILLER_10_119
*241 FILLER_11_0
*242 FILLER_11_8
*243 FILLER_11_16
*244 FILLER_11_24
*245 FILLER_11_32
*246 FILLER_11_40
*247 FILLER_11_48
*248 FILLER_11_56
*249 FILLER_11_61
*250 FILLER_11_69
*251 FILLER_11_77
*252 FILLER_11_85
*253 FILLER_11_93
*254 FILLER_11_101
*255 FILLER_11_109
*256 FILLER_11_117
*257 FILLER_11_119
*258 FILLER_12_0
*259 FILLER_12_8
*260 FILLER_12_16
*261 FILLER_12_24
*262 FILLER_12_28
*263 FILLER_12_31
*264 FILLER_12_39
*265 FILLER_12_47
*266 FILLER_12_55
*267 FILLER_12_63
*268 FILLER_12_71
*269 FILLER_12_79
*270 FILLER_12_87
*271 FILLER_12_89
*272 FILLER_12_91
*273 FILLER_12_99
*274 FILLER_12_107
*275 FILLER_12_115
*276 FILLER_12_119
*277 FILLER_13_0
*278 FILLER_13_8
*279 FILLER_13_16
*280 FILLER_13_24
*281 FILLER_13_32
*282 FILLER_13_40
*283 FILLER_13_48
*284 FILLER_13_56
*285 FILLER_13_61
*286 FILLER_13_69
*287 FILLER_13_77
*288 FILLER_13_85
*289 FILLER_13_93
*290 FILLER_13_101
*291 FILLER_13_109
*292 FILLER_13_117
*293 FILLER_13_119
*294 FILLER_14_0
*295 FILLER_14_8
*296 FILLER_14_16
*297 FILLER_14_24
*298 FILLER_14_28
*299 FILLER_14_31
*300 FILLER_14_39
*301 FILLER_14_47
*302 FILLER_14_55
*303 FILLER_14_63
*304 FILLER_14_71
*305 FILLER_14_79
*306 FILLER_14_87
*307 FILLER_14_89
*308 FILLER_14_91
*309 FILLER_14_99
*310 FILLER_14_107
*311 FILLER_14_115
*312 FILLER_14_119
*313 FILLER_15_0
*314 FILLER_15_8
*315 FILLER_15_16
*316 FILLER_15_24
*317 FILLER_15_32
*318 FILLER_15_40
*319 FILLER_15_48
*320 FILLER_15_56
*321 FILLER_15_61
*322 FILLER_15_69
*323 FILLER_15_77
*324 FILLER_15_85
*325 FILLER_15_93
*326 FILLER_15_101
*327 FILLER_15_109
*328 FILLER_15_117
*329 FILLER_15_119
*330 FILLER_16_0
*331 FILLER_16_8
*332 FILLER_16_16
*333 FILLER_16_24
*334 FILLER_16_28
*335 FILLER_16_31
*336 FILLER_16_39
*337 FILLER_16_47
*338 FILLER_16_55
*339 FILLER_16_63
*340 FILLER_16_71
*341 FILLER_16_79
*342 FILLER_16_87
*343 FILLER_16_89
*344 FILLER_16_91
*345 FILLER_16_99
*346 FILLER_16_107
*347 FILLER_16_115
*348 FILLER_16_119
*349 FILLER_17_0
*350 FILLER_17_8
*351 FILLER_17_16
*352 FILLER_17_24
*353 FILLER_17_32
*354 FILLER_17_40
*355 FILLER_17_48
*356 FILLER_17_56
*357 FILLER_17_61
*358 FILLER_17_69
*359 FILLER_17_77
*360 FILLER_17_85
*361 FILLER_17_93
*362 FILLER_17_101
*363 FILLER_17_109
*364 FILLER_17_117
*365 FILLER_17_119
*366 FILLER_18_0
*367 FILLER_18_8
*368 FILLER_18_16
*369 FILLER_18_24
*370 FILLER_18_28
*371 FILLER_18_31
*372 FILLER_18_39
*373 FILLER_18_47
*374 FILLER_18_55
*375 FILLER_18_63
*376 FILLER_18_71
*377 FILLER_18_79
*378 FILLER_18_87
*379 FILLER_18_89
*380 FILLER_18_91
*381 FILLER_18_99
*382 FILLER_18_107
*383 FILLER_18_115
*384 FILLER_18_119
*385 FILLER_19_0
*386 FILLER_19_8
*387 FILLER_19_16
*388 FILLER_19_24
*389 FILLER_19_32
*390 FILLER_19_40
*391 FILLER_19_48
*392 FILLER_19_56
*393 FILLER_19_61
*394 FILLER_19_69
*395 FILLER_19_77
*396 FILLER_19_85
*397 FILLER_19_93
*398 FILLER_19_101
*399 FILLER_19_109
*400 FILLER_19_117
*401 FILLER_19_119
*402 FILLER_20_0
*403 FILLER_20_8
*404 FILLER_20_16
*405 FILLER_20_24
*406 FILLER_20_28
*407 FILLER_20_31
*408 FILLER_20_39
*409 FILLER_20_47
*410 FILLER_20_55
*411 FILLER_20_59
*412 FILLER_20_61
*413 FILLER_20_69
*414 FILLER_20_77
*415 FILLER_20_85
*416 FILLER_20_89
*417 FILLER_20_91
*418 FILLER_20_99
*419 FILLER_20_107
*420 FILLER_20_115
*421 FILLER_20_119

*PORTS
clk I
data_in I
data_out O
rst I

*D_NET *1 0.000225626
*CONN
*I *7:RESET_B I *D sky130_fd_sc_hd__dfrtp_2
*I *6:Y O *D sky130_fd_sc_hd__inv_1
*CAP
1 *7:RESET_B 0.000112813
2 *6:Y 0.000112813
*RES
1 *6:Y *7:RESET_B 20.5272 
*END

*D_NET *2 0.000943914
*CONN
*P clk I
*I *7:CLK I *D sky130_fd_sc_hd__dfrtp_2
*CAP
1 clk 0.000320771
2 *7:CLK 0.000320771
3 *7:CLK *6:A 0.000275719
4 *7:CLK *7:D 2.66542e-05
*RES
1 clk *7:CLK 20.9691 
*END

*D_NET *3 0.000992964
*CONN
*P data_in I
*I *7:D I *D sky130_fd_sc_hd__dfrtp_2
*CAP
1 data_in 0.000159909
2 *7:D 0.000159909
3 *7:D data_out 0.000400663
4 *7:D *6:A 0.000245828
5 *7:CLK *7:D 2.66542e-05
*RES
1 data_in *7:D 18.7071 
*END

*D_NET *4 0.00179384
*CONN
*P data_out O
*I *7:Q O *D sky130_fd_sc_hd__dfrtp_2
*CAP
1 data_out 0.000696587
2 *7:Q 0.000696587
3 *7:D data_out 0.000400663
*RES
1 *7:Q data_out 21.5919 
*END

*D_NET *5 0.00131592
*CONN
*P rst I
*I *6:A I *D sky130_fd_sc_hd__inv_1
*CAP
1 rst 0.000397187
2 *6:A 0.000397187
3 *7:D *6:A 0.000245828
4 *7:CLK *6:A 0.000275719
*RES
1 rst *6:A 25.835 
*END
